
Gurobi 9.1.2 (win64) logging started Tue Dec  7 13:25:34 2021

Gurobi Optimizer version 9.1.2 build v9.1.2rc0 (win64)
Thread count: 8 physical cores, 8 logical processors, using up to 8 threads
Optimize a model with 1 rows, 15 columns and 14 nonzeros
Model fingerprint: 0xf7f6e323
Variable types: 1 continuous, 14 integer (14 binary)
Coefficient statistics:
  Matrix range     [3e+00, 1e+01]
  Objective range  [1e+00, 1e+00]
  Bounds range     [2e+01, 2e+01]
  RHS range        [1e+01, 1e+01]
Found heuristic solution: objective -15.7754063

Explored 0 nodes (0 simplex iterations) in 14.67 seconds
Thread count was 1 (of 8 available processors)

Solution count 1: -15.7754 
No other solutions better than -15.7754

Optimal solution found (tolerance 1.00e-04)
Best objective -1.577540631725e+01, best bound -1.577540631725e+01, gap 0.0000%

User-callback calls 25, time in user-callback 18.33 sec
